MARKOV
232
 2 2 2 2 2 2 2 2 2 2 2 2 2 2 2 2 2 2 2 2 2 2 2 2 2 2 2 2 2 2 2 2 2 2 2 2 2 2 2 2 2 2 2 2 2 2 2 2 2 2 2 2 2 2 2 2 2 2 2 2 2 2 2 2 2 2 2 2 2 2 2 2 2 2 2 2 2 2 2 2 2 2 2 2 2 2 2 2 2 2 2 2 2 2 2 2 2 2 2 2 2 2 2 2 2 2 2 2 2 2 2 2 2 2 2 2 2 2 2 2 2 2 2 2 2 2 2 2 2 2 2 2 2 2 2 2 2 2 2 2 2 2 2 2 2 2 2 2 2 2 2 2 2 2 2 2 2 2 2 2 2 2 2 2 2 2 2 2 2 2 2 2 2 2 2 2 2 2 2 2 2 2 2 2 2 2 2 2 2 2 2 2 2 2 2 2 2 2 2 2 2 2 2 2 2 2 2 2 2 2 2 2 2 2 2 2 2 2 2 2 2 2 2 2 2 2 2 2 2 2 2 2
864
1	0 
1	1 
1	2 
1	3 
1	4 
1	5 
1	6 
1	7 
1	8 
1	9 
1	10 
1	11 
1	12 
1	13 
1	14 
1	15 
1	16 
1	17 
1	18 
1	19 
1	20 
1	21 
1	22 
1	23 
1	24 
1	25 
1	26 
1	27 
1	28 
1	29 
1	30 
1	31 
1	32 
1	33 
1	34 
1	35 
1	36 
1	37 
1	38 
1	39 
1	40 
1	41 
1	42 
1	43 
1	44 
1	45 
1	46 
1	47 
1	48 
1	49 
1	50 
1	51 
1	52 
1	53 
1	54 
1	55 
1	56 
1	57 
1	58 
1	59 
1	60 
1	61 
1	62 
1	63 
1	64 
1	65 
1	66 
1	67 
1	68 
1	69 
1	70 
1	71 
1	72 
1	73 
1	74 
1	75 
1	76 
1	77 
1	78 
1	79 
1	80 
1	81 
1	82 
1	83 
1	84 
1	85 
1	86 
1	87 
1	88 
1	89 
1	90 
1	91 
1	92 
1	93 
1	94 
1	95 
1	96 
1	97 
1	98 
1	99 
1	100 
1	101 
1	102 
1	103 
1	104 
1	105 
1	106 
1	107 
1	108 
1	109 
1	110 
1	111 
1	112 
1	113 
1	114 
1	115 
1	116 
1	117 
1	118 
1	119 
1	120 
1	121 
1	122 
1	123 
1	124 
1	125 
1	126 
1	127 
1	128 
1	129 
1	130 
1	131 
1	132 
1	133 
1	134 
1	135 
1	136 
1	137 
1	138 
1	139 
1	140 
1	141 
1	142 
1	143 
1	144 
1	145 
1	146 
1	147 
1	148 
1	149 
1	150 
1	151 
1	152 
1	153 
1	154 
1	155 
1	156 
1	157 
1	158 
1	159 
1	160 
1	161 
1	162 
1	163 
1	164 
1	165 
1	166 
1	167 
1	168 
1	169 
1	170 
1	171 
1	172 
1	173 
1	174 
1	175 
1	176 
1	177 
1	178 
1	179 
1	180 
1	181 
1	182 
1	183 
1	184 
1	185 
1	186 
1	187 
1	188 
1	189 
1	190 
1	191 
1	192 
1	193 
1	194 
1	195 
1	196 
1	197 
1	198 
1	199 
1	200 
1	201 
1	202 
1	203 
1	204 
1	205 
1	206 
1	207 
1	208 
1	209 
1	210 
1	211 
1	212 
1	213 
1	214 
1	215 
1	216 
1	217 
1	218 
1	219 
1	220 
1	221 
1	222 
1	223 
1	224 
1	225 
1	226 
1	227 
1	228 
1	229 
1	230 
1	231 
2	1 30 
2	1 90 
2	1 109 
2	1 111 
2	1 119 
2	1 189 
2	2 3 
2	2 5 
2	2 6 
2	2 37 
2	2 38 
2	2 164 
2	2 228 
2	2 231 
2	3 6 
2	3 11 
2	3 122 
2	3 228 
2	4 8 
2	4 10 
2	4 11 
2	4 124 
2	4 127 
2	4 130 
2	4 218 
2	5 6 
2	5 9 
2	5 38 
2	6 9 
2	6 10 
2	6 11 
2	7 8 
2	7 9 
2	7 129 
2	7 131 
2	8 9 
2	8 10 
2	8 130 
2	8 131 
2	9 10 
2	10 11 
2	11 122 
2	11 127 
2	12 13 
2	12 41 
2	12 70 
2	12 84 
2	12 141 
2	12 142 
2	13 39 
2	13 41 
2	13 54 
2	13 68 
2	13 70 
2	14 15 
2	14 18 
2	14 20 
2	14 23 
2	14 55 
2	14 57 
2	15 20 
2	15 34 
2	15 55 
2	15 56 
2	15 194 
2	15 195 
2	16 17 
2	16 18 
2	16 58 
2	16 203 
2	17 18 
2	17 21 
2	17 23 
2	17 203 
2	17 205 
2	18 23 
2	18 57 
2	18 58 
2	19 20 
2	19 22 
2	19 23 
2	19 32 
2	20 23 
2	20 32 
2	20 34 
2	21 22 
2	21 23 
2	21 204 
2	22 23 
2	24 25 
2	24 26 
2	24 27 
2	24 28 
2	25 26 
2	25 28 
2	25 169 
2	25 171 
2	26 27 
2	27 28 
2	27 78 
2	27 81 
2	28 78 
2	28 171 
2	28 188 
2	29 30 
2	29 88 
2	29 89 
2	29 176 
2	29 186 
2	29 190 
2	30 89 
2	30 90 
2	30 186 
2	30 189 
2	31 33 
2	31 35 
2	31 193 
2	32 33 
2	32 34 
2	33 34 
2	33 35 
2	34 35 
2	34 195 
2	35 192 
2	35 193 
2	35 195 
2	36 37 
2	36 201 
2	36 202 
2	37 38 
2	37 163 
2	37 164 
2	37 201 
2	39 40 
2	39 41 
2	39 42 
2	39 54 
2	40 42 
2	40 54 
2	40 178 
2	40 185 
2	40 229 
2	40 230 
2	41 42 
2	41 83 
2	41 84 
2	41 214 
2	42 178 
2	42 179 
2	42 214 
2	43 46 
2	43 47 
2	43 87 
2	43 112 
2	43 113 
2	43 115 
2	43 146 
2	44 45 
2	44 46 
2	44 71 
2	44 123 
2	44 128 
2	44 174 
2	44 175 
2	45 46 
2	45 47 
2	45 90 
2	45 111 
2	45 172 
2	45 174 
2	46 47 
2	46 113 
2	46 123 
2	47 87 
2	47 90 
2	48 50 
2	48 51 
2	48 203 
2	48 205 
2	48 209 
2	48 210 
2	48 211 
2	49 50 
2	49 52 
2	49 206 
2	49 226 
2	50 51 
2	50 52 
2	50 205 
2	50 206 
2	51 52 
2	51 110 
2	51 210 
2	51 223 
2	52 223 
2	52 226 
2	53 54 
2	53 68 
2	53 71 
2	53 120 
2	53 128 
2	54 68 
2	54 120 
2	54 121 
2	54 230 
2	55 56 
2	55 57 
2	55 85 
2	55 212 
2	56 194 
2	56 198 
2	56 200 
2	56 212 
2	57 58 
2	57 82 
2	57 85 
2	58 82 
2	58 141 
2	58 203 
2	58 211 
2	59 60 
2	59 61 
2	59 62 
2	59 65 
2	59 66 
2	59 94 
2	60 62 
2	60 96 
2	61 62 
2	61 63 
2	61 64 
2	61 65 
2	62 63 
2	64 65 
2	64 67 
2	64 140 
2	65 66 
2	65 67 
2	66 67 
2	66 91 
2	66 94 
2	66 138 
2	67 137 
2	67 138 
2	67 140 
2	68 70 
2	68 71 
2	69 70 
2	69 71 
2	69 142 
2	69 173 
2	69 175 
2	69 209 
2	69 210 
2	70 71 
2	70 142 
2	71 128 
2	71 175 
2	72 73 
2	72 74 
2	72 75 
2	72 76 
2	72 77 
2	73 76 
2	73 77 
2	73 160 
2	73 162 
2	74 75 
2	75 77 
2	75 105 
2	76 157 
2	76 160 
2	77 103 
2	77 105 
2	77 162 
2	78 79 
2	78 81 
2	78 188 
2	78 191 
2	79 80 
2	79 81 
2	79 187 
2	79 191 
2	80 117 
2	80 187 
2	80 225 
2	82 83 
2	82 84 
2	82 85 
2	82 141 
2	83 84 
2	83 85 
2	83 214 
2	83 216 
2	84 141 
2	85 212 
2	85 216 
2	86 87 
2	86 88 
2	86 89 
2	86 144 
2	86 146 
2	87 89 
2	87 90 
2	87 146 
2	88 89 
2	88 144 
2	88 145 
2	88 176 
2	89 90 
2	90 111 
2	91 93 
2	91 94 
2	91 138 
2	91 219 
2	92 94 
2	92 96 
2	92 97 
2	92 98 
2	93 94 
2	93 95 
2	93 97 
2	93 217 
2	93 219 
2	94 96 
2	94 97 
2	95 97 
2	95 99 
2	95 101 
2	95 144 
2	95 217 
2	95 221 
2	97 98 
2	97 101 
2	98 100 
2	98 101 
2	99 101 
2	99 143 
2	99 144 
2	99 166 
2	100 101 
2	100 166 
2	100 168 
2	101 166 
2	102 103 
2	102 104 
2	102 107 
2	102 108 
2	102 158 
2	102 162 
2	102 181 
2	102 184 
2	103 105 
2	103 108 
2	103 162 
2	104 107 
2	104 151 
2	104 153 
2	104 180 
2	104 181 
2	105 106 
2	105 108 
2	106 107 
2	106 108 
2	106 152 
2	107 108 
2	107 151 
2	107 152 
2	109 110 
2	109 111 
2	109 118 
2	109 119 
2	109 172 
2	109 173 
2	110 118 
2	110 173 
2	110 210 
2	110 223 
2	111 172 
2	112 115 
2	112 146 
2	112 220 
2	112 221 
2	113 114 
2	113 115 
2	113 123 
2	113 125 
2	114 115 
2	114 124 
2	114 125 
2	114 218 
2	115 218 
2	115 220 
2	115 222 
2	116 117 
2	116 118 
2	116 119 
2	116 224 
2	116 225 
2	117 119 
2	117 187 
2	117 189 
2	117 225 
2	118 119 
2	118 223 
2	118 224 
2	119 189 
2	120 121 
2	120 122 
2	120 126 
2	120 128 
2	121 122 
2	121 228 
2	121 230 
2	122 126 
2	122 127 
2	122 228 
2	123 125 
2	123 126 
2	123 128 
2	124 125 
2	124 127 
2	124 218 
2	125 126 
2	125 127 
2	126 127 
2	126 128 
2	129 131 
2	129 132 
2	129 136 
2	130 131 
2	130 135 
2	130 218 
2	131 132 
2	131 135 
2	132 133 
2	132 134 
2	132 135 
2	132 136 
2	133 134 
2	133 135 
2	133 137 
2	133 138 
2	133 219 
2	133 222 
2	134 136 
2	134 137 
2	134 139 
2	135 218 
2	135 222 
2	136 139 
2	137 138 
2	137 139 
2	137 140 
2	138 219 
2	139 140 
2	141 142 
2	141 211 
2	142 209 
2	142 211 
2	143 144 
2	143 145 
2	143 166 
2	143 207 
2	144 145 
2	144 146 
2	144 221 
2	145 176 
2	145 177 
2	145 207 
2	146 221 
2	147 149 
2	147 154 
2	147 156 
2	147 199 
2	147 200 
2	147 215 
2	148 149 
2	148 150 
2	148 196 
2	148 199 
2	149 150 
2	149 154 
2	149 199 
2	150 154 
2	150 155 
2	151 152 
2	151 153 
2	151 154 
2	151 156 
2	152 154 
2	152 155 
2	153 156 
2	153 180 
2	153 213 
2	154 155 
2	154 156 
2	156 213 
2	156 215 
2	157 160 
2	157 161 
2	158 159 
2	158 160 
2	158 162 
2	158 184 
2	159 160 
2	159 161 
2	159 165 
2	159 183 
2	159 184 
2	159 202 
2	160 161 
2	160 162 
2	161 202 
2	163 164 
2	163 165 
2	163 201 
2	163 231 
2	164 231 
2	165 183 
2	165 201 
2	165 202 
2	165 231 
2	166 167 
2	166 168 
2	166 207 
2	167 168 
2	167 169 
2	167 170 
2	167 171 
2	167 207 
2	167 208 
2	168 170 
2	169 170 
2	169 171 
2	171 188 
2	171 208 
2	172 173 
2	172 174 
2	173 174 
2	173 175 
2	173 210 
2	174 175 
2	176 177 
2	176 188 
2	176 190 
2	176 208 
2	177 207 
2	177 208 
2	178 179 
2	178 182 
2	178 185 
2	179 180 
2	179 182 
2	179 213 
2	179 214 
2	180 181 
2	180 182 
2	180 213 
2	181 182 
2	181 184 
2	182 184 
2	182 185 
2	183 184 
2	183 185 
2	183 231 
2	184 185 
2	185 229 
2	185 231 
2	186 187 
2	186 189 
2	186 190 
2	186 191 
2	187 189 
2	187 191 
2	188 190 
2	188 191 
2	188 208 
2	190 191 
2	192 193 
2	192 195 
2	192 197 
2	192 198 
2	193 197 
2	194 195 
2	195 198 
2	196 197 
2	196 198 
2	196 199 
2	197 198 
2	198 199 
2	198 200 
2	199 200 
2	200 212 
2	200 215 
2	201 202 
2	203 205 
2	203 211 
2	204 205 
2	204 206 
2	205 206 
2	207 208 
2	209 210 
2	209 211 
2	212 215 
2	212 216 
2	213 214 
2	213 215 
2	213 216 
2	214 216 
2	215 216 
2	217 219 
2	217 220 
2	217 221 
2	218 222 
2	219 220 
2	219 222 
2	220 221 
2	220 222 
2	223 224 
2	223 226 
2	224 225 
2	224 226 
2	224 227 
2	225 227 
2	226 227 
2	228 230 
2	228 231 
2	229 230 
2	229 231 
2	230 231 
0	

2
 0.252912 1
2
 0.163649 1
2
 1 0.045446
2
 1 0.100811
2
 1 0.0922233
2
 1 0.0471095
2
 1 0.380623
2
 1 0.0208413
2
 1 0.0596933
2
 1 0.039933
2
 1 0.167676
2
 1 0.21625
2
 0.535729 1
2
 0.365612 1
2
 1 0.165379
2
 1 0.15243
2
 1 0.584078
2
 1 0.138163
2
 1 0.348171
2
 1 0.0685284
2
 1 0.0673185
2
 1 0.088377
2
 1 0.0806409
2
 1 0.0811873
2
 1 0.113
2
 1 0.095451
2
 1 0.082955
2
 1 0.0525658
2
 1 0.0942718
2
 0.240826 1
2
 0.180595 1
2
 1 0.0228288
2
 1 0.0508853
2
 1 0.0426713
2
 1 0.1103
2
 1 0.0550591
2
 1 0.11013
2
 1 0.265603
2
 1 0.122523
2
 0.249382 1
2
 0.138657 1
2
 0.186108 1
2
 0.186886 1
2
 0.768 1
2
 0.862439 1
2
 1 0.533865
2
 1 0.810635
2
 1 0.263782
2
 1 0.362389
2
 1 0.0664412
2
 1 0.130955
2
 1 0.237557
2
 1 0.123446
2
 0.124266 1
2
 0.111235 1
2
 0.643926 1
2
 0.637108 1
2
 0.171887 1
2
 0.160528 1
2
 1 0.0336655
2
 1 0.0359195
2
 1 0.042526
2
 1 0.0453081
2
 1 0.0347714
2
 1 0.0379229
2
 1 0.0303173
2
 1 0.0430991
2
 1 0.041179
2
 1 0.562287
2
 0.322378 1
2
 1 0.249556
2
 0.997448 1
2
 1 0.0489241
2
 1 0.041859
2
 1 0.0267076
2
 1 0.0508349
2
 1 0.0270176
2
 1 0.0328929
2
 1 0.108946
2
 1 0.150582
2
 1 0.135827
2
 1 0.0659353
2
 1 0.539803
2
 1 0.296219
2
 1 0.797833
2
 1 0.364582
2
 1 0.713857
2
 1 0.669007
2
 1 0.942115
2
 0.46945 1
2
 0.433911 1
2
 1 0.160217
2
 1 0.0919922
2
 1 0.216867
2
 1 0.153604
2
 1 0.369161
2
 1 0.0506427
2
 1 0.112947
2
 1 0.0465256
2
 1 0.298674
2
 1 0.0527576
2
 1 0.141289
2
 1 0.116018
2
 1 0.0761009
2
 1 0.237962
2
 1 0.0224272
2
 1 0.0465537
2
 1 0.0568007
2
 1 0.060247
2
 0.204233 1
2
 0.292163 1
2
 0.152856 1
2
 1 0.320383
2
 1 0.354805
2
 1 0.119977
2
 1 0.337725
2
 1 0.419756
2
 1 0.158111
2
 1 0.620964
2
 1 0.272431
2
 0.685307 1
2
 0.363258 1
2
 1 0.21719
2
 1 0.684744
2
 1 0.15528
2
 1 0.129533
2
 1 0.252756
2
 1 0.123143
2
 0.610191 1
2
 1 0.0364575
2
 1 0.145222
2
 1 0.055786
2
 1 0.0493475
2
 1 0.130981
2
 1 0.043621
2
 1 0.0550469
2
 1 0.0383195
2
 1 0.0332752
2
 1 0.0588554
2
 1 0.032988
2
 1 0.0308973
2
 0.176328 1
2
 0.413242 1
2
 1 0.821821
2
 1 0.346993
2
 1 0.536265
2
 1 0.738043
2
 1 0.166415
2
 1 0.0392167
2
 1 0.121715
2
 1 0.0381047
2
 1 0.122887
2
 1 0.0251049
2
 1 0.147249
2
 1 0.0561903
2
 1 0.0620426
2
 1 0.171524
2
 1 0.0230569
2
 1 0.0760021
2
 1 0.093919
2
 1 0.0586422
2
 1 0.0642431
2
 1 0.0344898
2
 1 0.478342
2
 1 0.309359
2
 1 0.183901
2
 1 0.326302
2
 1 0.115412
2
 1 0.0807363
2
 1 0.112577
2
 1 0.072029
2
 1 0.142704
2
 0.628928 1
2
 0.31561 1
2
 0.637799 1
2
 0.524095 1
2
 0.360096 1
2
 0.256893 1
2
 1 0.619457
2
 1 0.420835
2
 1 0.148318
2
 1 0.202326
2
 1 0.12214
2
 1 0.176851
2
 1 0.211164
2
 1 0.197384
2
 1 0.195676
2
 1 0.190593
2
 1 0.106604
2
 1 0.208668
2
 1 0.153298
2
 1 0.221408
2
 1 0.0571792
2
 1 0.0601194
2
 1 0.294868
2
 1 0.133802
2
 1 0.0855877
2
 1 0.0518218
2
 1 0.142128
2
 1 0.147674
2
 1 0.140187
2
 1 0.218329
2
 1 0.128423
2
 1 0.19301
2
 1 0.0766704
2
 1 0.214861
2
 1 0.141786
2
 0.298631 1
2
 0.377062 1
2
 0.0695714 1
2
 0.182878 1
2
 0.160326 1
2
 1 0.207438
2
 1 0.265105
2
 1 0.337394
2
 1 0.232759
2
 1 0.158976
2
 1 0.0872086
2
 1 0.334483
2
 1 0.0610173
2
 1 0.159634
2
 1 0.32741
2
 1 0.131926
2
 1 0.242631
2
 1 0.593144
2
 1 0.092289
2
 1 0.0514005
2
 1 0.0760154
2
 1 0.132581
2
 1 0.560707
2
 0.880675 1
2
 1 0.194478
4
 0.969896 0.293734 0.293734 1
4
 0.974318 0.295989 0.295989 1
4
 0.966418 0.28751 0.28751 1
4
 0.970224 0.291623 0.291623 1
4
 0.963654 0.287404 0.287404 1
4
 0.964791 0.28974 0.28974 1
4
 1 0.310151 0.310151 0.973368
4
 1 0.315185 0.315185 0.963904
4
 1 0.313441 0.313441 0.968624
4
 1 0.310865 0.310865 0.966396
4
 1 0.313131 0.313131 0.96477
4
 1 0.308252 0.308252 0.971292
4
 1 0.307222 0.307222 0.976872
4
 1 0.30565 0.30565 0.975994
4
 1 0.313424 0.313424 0.971075
4
 1 0.311955 0.311955 0.975941
4
 1 0.308564 0.308564 0.980995
4
 1 0.307206 0.307206 0.979343
4
 1 0.322179 0.322179 0.968518
4
 1 0.319738 0.319738 0.970641
4
 1 0.31676 0.31676 0.97501
4
 1 0.317842 0.317842 0.978356
4
 1 0.315641 0.315641 0.97929
4
 1 0.322487 0.322487 0.972169
4
 1 0.320944 0.320944 0.976381
4
 1 0.318512 0.318512 0.961634
4
 1 0.322396 0.322396 0.956303
4
 1 0.318197 0.318197 0.957807
4
 1 0.320612 0.320612 0.960987
4
 1 0.318228 0.318228 0.966832
4
 1 0.315264 0.315264 0.971185
4
 1 0.327211 0.327211 0.957863
4
 1 0.327165 0.327165 0.954159
4
 1 0.33214 0.33214 0.951965
4
 1 0.329493 0.329493 0.956949
4
 1 0.324568 0.324568 0.95937
4
 1 0.322154 0.322154 0.965206
4
 1 0.324925 0.324925 0.966725
4
 1 0.326877 0.326877 0.962176
4
 1 0.322109 0.322109 0.961473
4
 1 0.316736 0.316736 0.971676
4
 1 0.310375 0.310375 0.981106
4
 1 0.312677 0.312677 0.980335
4
 0.980029 0.281548 0.281548 1
4
 0.977941 0.278005 0.278005 1
4
 0.976184 0.280368 0.280368 1
4
 0.973066 0.274863 0.274863 1
4
 0.969085 0.27333 0.27333 1
4
 0.972792 0.277444 0.277444 1
4
 0.988763 0.287265 0.287265 1
4
 0.983061 0.282176 0.282176 1
4
 0.990485 0.289981 0.289981 1
4
 0.985602 0.287795 0.287795 1
4
 0.981295 0.284575 0.284575 1
4
 0.943105 0.247741 0.247741 1
4
 0.945808 0.251999 0.251999 1
4
 0.939247 0.245539 0.245539 1
4
 0.939826 0.247622 0.247622 1
4
 0.949427 0.252403 0.252403 1
4
 0.950547 0.254879 0.254879 1
4
 0.937613 0.243239 0.243239 1
4
 0.936456 0.240764 0.240764 1
4
 0.947776 0.250039 0.250039 1
4
 0.946394 0.24786 0.24786 1
4
 0.942787 0.245409 0.245409 1
4
 0.941042 0.24329 0.24329 1
4
 0.945967 0.256165 0.256165 1
4
 0.94868 0.256687 0.256687 1
4
 0.953861 0.261459 0.261459 1
4
 0.949052 0.25968 0.25968 1
4
 0.944163 0.253413 0.253413 1
4
 0.936875 0.249855 0.249855 1
4
 0.938191 0.249011 0.249011 1
4
 0.944533 0.256367 0.256367 1
4
 0.940986 0.254373 0.254373 1
4
 0.940882 0.249519 0.249519 1
4
 0.951615 0.256831 0.256831 1
4
 0.952042 0.258649 0.258649 1
4
 0.930062 0.239156 0.239156 1
4
 0.927142 0.23931 0.23931 1
4
 0.930637 0.241185 0.241185 1
4
 0.925374 0.235165 0.235165 1
4
 0.934354 0.243122 0.243122 1
4
 0.929071 0.237053 0.237053 1
4
 0.932626 0.238624 0.238624 1
4
 0.930113 0.244103 0.244103 1
4
 0.933619 0.246016 0.246016 1
4
 0.93189 0.247992 0.247992 1
4
 0.93142 0.243278 0.243278 1
4
 0.961758 0.304289 0.304289 1
4
 0.955514 0.299584 0.299584 1
4
 0.954334 0.296536 0.296536 1
4
 0.959978 0.300657 0.300657 1
4
 0.959061 0.303305 0.303305 1
4
 0.963542 0.304391 0.304391 1
4
 0.97011 0.311444 0.311444 1
4
 0.969131 0.308849 0.308849 1
4
 0.951659 0.295577 0.295577 1
4
 0.956105 0.296636 0.296636 1
4
 0.952408 0.292101 0.292101 1
4
 0.948672 0.289426 0.289426 1
4
 0.95804 0.29616 0.29616 1
4
 0.967337 0.305163 0.305163 1
4
 0.963976 0.300975 0.300975 1
4
 0.972623 0.299142 0.299142 1
4
 0.978318 0.305696 0.305696 1
4
 0.976892 0.303032 0.303032 1
4
 0.974152 0.303567 0.303567 1
4
 0.969188 0.297864 0.297864 1
4
 0.970331 0.300285 0.300285 1
4
 0.976234 0.300844 0.300844 1
4
 0.976399 0.299261 0.299261 1
4
 0.968535 0.295714 0.295714 1
4
 0.966851 0.292944 0.292944 1
4
 0.922212 0.227449 0.227449 1
4
 0.926052 0.229213 0.229213 1
4
 0.928969 0.229831 0.229831 1
4
 0.923144 0.230895 0.230895 1
4
 0.927925 0.234641 0.234641 1
4
 0.926675 0.232425 0.232425 1
4
 0.92574 0.230488 0.230488 1
4
 0.930534 0.234228 0.234228 1
4
 0.936036 0.238674 0.238674 1
4
 0.934042 0.234886 0.234886 1
4
 0.932522 0.232902 0.232902 1
4
 0.935091 0.236685 0.236685 1
4
 1 0.310711 0.310711 0.960283
4
 1 0.308046 0.308046 0.9612
4
 1 0.306143 0.306143 0.961577
4
 1 0.313835 0.313835 0.960284
4
 1 0.307655 0.307655 0.966667
4
 1 0.308945 0.308945 0.966776
4
 1 0.308892 0.308892 0.962821
4
 0.996175 0.291163 0.291163 1
4
 0.986656 0.28365 0.28365 1
4
 0.9921 0.287136 0.287136 1
4
 0.994107 0.291495 0.291495 1
4
 0.995895 0.28952 0.28952 1
4
 0.99791 0.293916 0.293916 1
4
 1 0.291964 0.291964 0.999172
4
 1 0.293977 0.293977 0.994805
4
 1 0.294877 0.294877 0.995756
4
 1 0.296588 0.296588 0.995421
4
 0.986379 0.282049 0.282049 1
4
 0.976186 0.2739 0.2739 1
4
 0.976076 0.275476 0.275476 1
4
 0.981572 0.277266 0.277266 1
4
 0.996735 0.288164 0.288164 1
4
 0.991989 0.284013 0.284013 1
4
 0.986989 0.280673 0.280673 1
4
 0.996562 0.310182 0.310182 1
4
 0.993935 0.309611 0.309611 1
4
 0.994381 0.311802 0.311802 1
4
 1 0.318294 0.318294 0.996712
4
 1 0.313773 0.313773 0.998672
4
 1 0.316805 0.316805 0.995984
4
 0.998914 0.316298 0.316298 1
4
 0.985157 0.29893 0.29893 1
4
 0.991818 0.303177 0.303177 1
4
 0.987928 0.296914 0.296914 1
4
 0.994327 0.303454 0.303454 1
4
 0.993044 0.300727 0.300727 1
4
 0.983499 0.295775 0.295775 1
4
 0.984383 0.295017 0.295017 1
4
 0.988148 0.302468 0.302468 1
4
 0.985544 0.301911 0.301911 1
4
 0.981181 0.29989 0.29989 1
4
 0.977058 0.295467 0.295467 1
4
 0.977552 0.294243 0.294243 1
4
 0.979861 0.295083 0.295083 1
4
 0.992207 0.3062 0.3062 1
4
 0.999589 0.310729 0.310729 1
4
 0.997346 0.307045 0.307045 1
4
 0.990036 0.3078 0.3078 1
4
 0.985211 0.30359 0.30359 1
4
 0.948145 0.26372 0.26372 1
4
 0.952467 0.267968 0.267968 1
4
 0.949851 0.262808 0.262808 1
4
 0.946284 0.260764 0.260764 1
4
 0.957777 0.270034 0.270034 1
4
 0.956917 0.270727 0.270727 1
4
 0.955682 0.267402 0.267402 1
4
 0.94014 0.259747 0.259747 1
4
 0.939981 0.26112 0.26112 1
4
 0.934981 0.255739 0.255739 1
4
 0.937188 0.260347 0.260347 1
4
 0.948518 0.265906 0.265906 1
4
 0.944054 0.263074 0.263074 1
4
 0.94236 0.258758 0.258758 1
4
 0.939032 0.257653 0.257653 1
4
 0.948358 0.267312 0.267312 1
4
 0.956916 0.274362 0.274362 1
4
 0.957293 0.272972 0.272972 1
4
 0.951291 0.270602 0.270602 1
4
 0.946814 0.26772 0.26772 1
4
 0.94109 0.263682 0.263682 1
4
 0.994553 0.29503 0.29503 1
4
 0.98965 0.292807 0.292807 1
4
 0.99015 0.295016 0.295016 1
4
 0.998077 0.299274 0.299274 1
4
 0.995278 0.298805 0.298805 1
4
 0.990929 0.292033 0.292033 1
4
 0.999367 0.298484 0.298484 1
4
 1 0.297996 0.297996 0.999342
4
 1 0.297544 0.297544 0.997491
4
 0.952739 0.252524 0.252524 1
4
 0.955256 0.257243 0.257243 1
4
 0.958426 0.258297 0.258297 1
4
 0.95848 0.256699 0.256699 1
4
 0.947724 0.247848 0.247848 1
4
 0.949802 0.247383 0.247383 1
4
 0.954399 0.251534 0.251534 1
4
 0.957082 0.254462 0.254462 1
4
 0.956812 0.261605 0.261605 1
4
 0.960634 0.263267 0.263267 1
4
 0.959556 0.260831 0.260831 1
4
 0.961065 0.265131 0.265131 1
4
 0.960256 0.266379 0.266379 1
4
 0.952416 0.261664 0.261664 1
4
 0.958262 0.266238 0.266238 1
4
 1 0.352585 0.352585 0.958352
4
 1 0.354532 0.354532 0.950634
4
 1 0.354837 0.354837 0.953575
4
 1 0.35135 0.35135 0.954431
4
 1 0.34855 0.34855 0.959429
4
 1 0.347483 0.347483 0.964019
4
 1 0.356068 0.356068 0.954432
4
 1 0.35154 0.35154 0.963587
4
 1 0.358035 0.358035 0.946746
4
 1 0.360616 0.360616 0.94192
4
 1 0.355785 0.355785 0.943667
4
 1 0.354516 0.354516 0.947596
4
 1 0.360927 0.360927 0.944834
4
 1 0.352592 0.352592 0.947436
4
 1 0.350339 0.350339 0.94914
4
 1 0.351426 0.351426 0.944832
4
 1 0.348535 0.348535 0.956362
4
 1 0.34909 0.34909 0.953092
4
 1 0.346308 0.346308 0.958082
4
 1 0.342816 0.342816 0.965589
4
 1 0.344699 0.344699 0.965969
4
 1 0.342253 0.342253 0.962936
4
 1 0.344858 0.344858 0.955127
4
 1 0.342798 0.342798 0.959643
4
 1 0.347935 0.347935 0.950473
4
 0.981735 0.286589 0.286589 1
4
 0.986543 0.292019 0.292019 1
4
 0.975087 0.283387 0.283387 1
4
 0.979862 0.288756 0.288756 1
4
 0.971699 0.280431 0.280431 1
4
 0.970825 0.283505 0.283505 1
4
 0.976347 0.286911 0.286911 1
4
 0.968104 0.278845 0.278845 1
4
 0.967235 0.279561 0.279561 1
4
 0.982231 0.288752 0.288752 1
4
 0.974048 0.280427 0.280427 1
4
 0.992153 0.298001 0.298001 1
4
 0.9835 0.292343 0.292343 1
4
 1 0.286398 0.286398 0.97577
4
 1 0.284519 0.284519 0.973526
4
 1 0.282394 0.282394 0.979227
4
 1 0.288708 0.288708 0.970906
4
 1 0.28381 0.28381 0.979228
4
 1 0.288721 0.288721 0.974019
4
 1 0.283822 0.283822 0.982367
4
 1 0.288879 0.288879 0.977745
4
 1 0.28609 0.28609 0.982644
4
 1 0.280553 0.280553 0.980107
4
 1 0.279854 0.279854 0.985848
4
 1 0.276482 0.276482 0.991343
4
 1 0.29308 0.29308 0.968239
4
 1 0.29121 0.29121 0.972871
4
 1 0.280924 0.280924 0.989176
4
 1 0.277868 0.277868 0.991344
4
 1 0.283505 0.283505 0.986126
4
 0.950699 0.287308 0.287308 1
4
 0.950592 0.288962 0.288962 1
4
 0.960248 0.296374 0.296374 1
4
 0.956643 0.292115 0.292115 1
4
 0.945536 0.28019 0.28019 1
4
 0.94697 0.284677 0.284677 1
4
 0.950913 0.284503 0.284503 1
4
 0.952998 0.287783 0.287783 1
4
 0.947397 0.27868 0.27868 1
4
 0.949367 0.281631 0.281631 1
4
 0.943468 0.275156 0.275156 1
4
 0.968161 0.268032 0.268032 1
4
 0.968052 0.269575 0.269575 1
4
 0.963822 0.264345 0.264345 1
4
 0.964092 0.268071 0.268071 1
4
 0.971319 0.270805 0.270805 1
4
 0.967075 0.265551 0.265551 1
4
 0.976789 0.272564 0.272564 1
4
 0.971866 0.268015 0.268015 1
4
 0.967237 0.270844 0.270844 1
4
 0.962795 0.260279 0.260279 1
4
 0.96751 0.264328 0.264328 1
4
 0.989757 0.311208 0.311208 1
4
 0.986206 0.311288 0.311288 1
4
 0.984767 0.308576 0.308576 1
4
 0.993264 0.31674 0.31674 1
4
 0.994269 0.315695 0.315695 1
4
 0.985487 0.307356 0.307356 1
4
 0.985653 0.305739 0.305739 1
4
 0.994995 0.314448 0.314448 1
4
 0.981951 0.307435 0.307435 1
4
 0.990423 0.315569 0.315569 1
4
 0.984379 0.312223 0.312223 1
4
 0.979197 0.307978 0.307978 1
4
 0.980685 0.303153 0.303153 1
4
 0.976728 0.29711 0.29711 1
4
 1 0.337849 0.337849 0.973975
4
 1 0.341767 0.341767 0.970209
4
 1 0.339342 0.339342 0.967162
4
 1 0.336742 0.336742 0.971517
4
 1 0.344103 0.344103 0.973976
4
 1 0.346916 0.346916 0.972665
4
 1 0.341382 0.341382 0.979516
4
 1 0.342762 0.342762 0.981443
4
 1 0.339704 0.339704 0.974358
4
 1 0.333699 0.333699 0.983483
4
 1 0.337018 0.337018 0.9799
4
 1 0.333161 0.333161 0.981
4
 1 0.334709 0.334709 0.975671
4
 1 0.346453 0.346453 0.969284
4
 1 0.340927 0.340927 0.976111
4
 1 0.334901 0.334901 0.985252
4
 1 0.3304 0.3304 0.992526
4
 1 0.333058 0.333058 0.990299
4
 1 0.326713 0.326713 0.995651
4
 1 0.331068 0.331068 0.986358
4
 1 0.329059 0.329059 0.990354
4
 1 0.339599 0.339599 0.983594
4
 1 0.33637 0.33637 0.986692
4
 1 0.339318 0.339318 0.989356
4
 1 0.33773 0.33773 0.988633
4
 1 0.331849 0.331849 0.993976
4
 0.999024 0.326237 0.326237 1
4
 1 0.325528 0.325528 0.999348
4
 1 0.329484 0.329484 0.999293
4
 1 0.336092 0.336092 0.992471
4
 1 0.333697 0.333697 0.99778
4
 1 0.335392 0.335392 0.998228
4
 1 0.332135 0.332135 0.997051
4
 1 0.281151 0.281151 0.994746
4
 0.998082 0.279035 0.279035 1
4
 0.997354 0.276892 0.276892 1
4
 1 0.27897 0.27897 0.998552
4
 1 0.285497 0.285497 0.99129
4
 1 0.283734 0.283734 0.991679
4
 1 0.28292 0.28292 0.997768
4
 1 0.285832 0.285832 0.993631
4
 1 0.27754 0.27754 0.994689
4
 1 0.278416 0.278416 0.996311
4
 1 0.28317 0.28317 0.989454
4
 0.992438 0.273434 0.273434 1
4
 0.988655 0.271634 0.271634 1
4
 0.988988 0.273759 0.273759 1
4
 0.992158 0.276923 0.276923 1
4
 0.997297 0.280012 0.280012 1
4
 0.997523 0.271786 0.271786 1
4
 1 0.275387 0.275387 0.998495
4
 0.991826 0.269781 0.269781 1
4
 0.9959 0.2722 0.2722 1
4
 0.987547 0.265555 0.265555 1
4
 0.995788 0.273767 0.273767 1
4
 0.987934 0.269548 0.269548 1
4
 0.987436 0.267083 0.267083 1
4
 0.963006 0.281549 0.281549 1
4
 0.968809 0.2886 0.2886 1
4
 0.960522 0.281161 0.281161 1
4
 0.962249 0.284425 0.284425 1
4
 0.969299 0.287404 0.287404 1
4
 0.966962 0.284074 0.284074 1
4
 0.958529 0.278216 0.278216 1
4
 0.964955 0.281098 0.281098 1
4
 0.961386 0.277187 0.277187 1
4
 0.955359 0.274781 0.274781 1
4
 0.973116 0.291515 0.291515 1
4
 1 0.320962 0.320962 0.99102
4
 1 0.320797 0.320797 0.996097
4
 1 0.32495 0.32495 0.987077
4
 1 0.324496 0.324496 0.9918
4
 1 0.315526 0.315526 0.991074
4
 1 0.316403 0.316403 0.992969
4
 1 0.310356 0.310356 0.997886
4
 1 0.312496 0.312496 0.993526
4
 1 0.318575 0.318575 0.988407
4
 1 0.316811 0.316811 0.98464
4
 1 0.314641 0.314641 0.988961
4
 1 0.319903 0.319903 0.982652
4
 1 0.320793 0.320793 0.98453
4
 1 0.32343 0.32343 0.986357
4
 1 0.323426 0.323426 0.983425
4
 0.951556 0.279029 0.279029 1
4
 0.954178 0.277944 0.277944 1
4
 0.955894 0.281171 0.281171 1
4
 0.949208 0.27475 0.27475 1
4
 0.94761 0.2755 0.2755 1
4
 0.955142 0.282155 0.282155 1
4
 0.952785 0.28297 0.28297 1
4
 0.956269 0.284448 0.284448 1
4
 0.946865 0.276465 0.276465 1
4
 0.957775 0.281058 0.281058 1
4
 0.952894 0.274402 0.274402 1
4
 0.951076 0.27464 0.27464 1
4
 0.960628 0.286632 0.286632 1
4
 1 0.301215 0.301215 0.995813
4
 1 0.30444 0.30444 0.991629
4
 1 0.304348 0.304348 0.995311
4
 1 0.302273 0.302273 0.999904
4
 1 0.30375 0.30375 0.990348
4
 1 0.302413 0.302413 0.988681
4
 1 0.300077 0.300077 0.992686
4
 1 0.306909 0.306909 0.989849
4
 1 0.309279 0.309279 0.985412
4
 1 0.30565 0.30565 0.984526
4
 1 0.309485 0.309485 0.995759
4
 1 0.307091 0.307091 0.996822
4
 0.99858 0.304565 0.304565 1
4
 1 0.313769 0.313769 0.987075
4
 1 0.313745 0.313745 0.983699
4
 1 0.319017 0.319017 0.980777
4
 1 0.309209 0.309209 0.992465
4
 1 0.311596 0.311596 0.988017
4
 1 0.309186 0.309186 0.989071
4
 1 0.304725 0.304725 0.998109
4
 1 0.331801 0.331801 0.956252
4
 1 0.334492 0.334492 0.954535
4
 1 0.337466 0.337466 0.94967
4
 1 0.32719 0.32719 0.965803
4
 1 0.327493 0.327493 0.969226
4
 1 0.32368 0.32368 0.974574
4
 1 0.331826 0.331826 0.959533
4
 1 0.329461 0.329461 0.964665
4
 1 0.334532 0.334532 0.960882
4
 1 0.337082 0.337082 0.955931
4
 1 0.332133 0.332133 0.962934
4
 1 0.337492 0.337492 0.952929
4
 1 0.337097 0.337097 0.958995
4
 1 0.332148 0.332148 0.966021
4
 1 0.338682 0.338682 0.959696
4
 1 0.336659 0.336659 0.964233
4
 1 0.334079 0.334079 0.968574
4
 1 0.330975 0.330975 0.970261
4
 1 0.340079 0.340079 0.951059
4
 1 0.341263 0.341263 0.954751
4
 1 0.342602 0.342602 0.950312
4
 1 0.325926 0.325926 0.973426
4
 1 0.328602 0.328602 0.972334
4
 1 0.343018 0.343018 0.947328
4
 1 0.34082 0.34082 0.959966
4
 1 0.344213 0.344213 0.951006
4
 1 0.345927 0.345927 0.950793
4
 1 0.336188 0.336188 0.968847
4
 1 0.347284 0.347284 0.946372
4
 0.966964 0.273387 0.273387 1
4
 0.96128 0.269191 0.269191 1
4
 0.967072 0.275932 0.275932 1
4
 0.964957 0.273243 0.273243 1
4
 0.995888 0.321585 0.321585 1
4
 0.989811 0.318175 0.318175 1
4
 0.995943 0.325511 0.325511 1
4
 0.991034 0.32091 0.32091 1
4
 0.991424 0.317691 0.317691 1
4
 0.99852 0.320036 0.320036 1
4
 1 0.324207 0.324207 0.997161
4
 0.980187 0.310049 0.310049 1
4
 0.983826 0.313899 0.313899 1
4
 0.986592 0.317024 0.317024 1
4
 1 0.322811 0.322811 0.996154
4
 0.966535 0.256078 0.256078 1
4
 0.971813 0.259537 0.259537 1
4
 0.972413 0.261739 0.261739 1
4
 0.962527 0.254107 0.254107 1
4
 0.962797 0.255549 0.255549 1
4
 0.96936 0.2606 0.2606 1
4
 0.962203 0.250877 0.250877 1
4
 0.963555 0.250447 0.250447 1
4
 0.956171 0.246224 0.246224 1
4
 0.958213 0.248946 0.248946 1
4
 0.966264 0.253363 0.253363 1
4
 0.970178 0.257226 0.257226 1
4
 0.960907 0.251844 0.251844 1
4
 0.971541 0.256785 0.256785 1
4
 0.971487 0.255385 0.255385 1
4
 0.983673 0.265325 0.265325 1
4
 0.9845 0.269868 0.269868 1
4
 0.979813 0.264213 0.264213 1
4
 0.980418 0.266455 0.266455 1
4
 0.979319 0.261797 0.261797 1
4
 0.979264 0.26037 0.26037 1
4
 0.980748 0.268539 0.268539 1
4
 0.987988 0.275123 0.275123 1
4
 0.982898 0.272088 0.272088 1
4
 0.975422 0.259279 0.259279 1
4
 0.976079 0.262912 0.262912 1
4
 0.978822 0.268646 0.268646 1
4
 0.973615 0.263989 0.263989 1
4
 1 0.293241 0.293241 0.971944
4
 1 0.296724 0.296724 0.967262
4
 1 0.292431 0.292431 0.981487
4
 1 0.29035 0.29035 0.981101
4
 1 0.287547 0.287547 0.986016
4
 1 0.289673 0.289673 0.987956
4
 1 0.293458 0.293458 0.976978
4
 1 0.296945 0.296945 0.972272
4
 1 0.29795 0.29795 0.975389
4
 1 0.295807 0.295807 0.980166
4
 1 0.292775 0.292775 0.983805
4
 1 0.298996 0.298996 0.970908
4
 1 0.294831 0.294831 0.971889
4
 1 0.288557 0.288557 0.981486
4
 1 0.300395 0.300395 0.965851
4
 1 0.305068 0.305068 0.971564
4
 1 0.302071 0.302071 0.972437
4
 1 0.305016 0.305016 0.96759
4
 1 0.302494 0.302494 0.976267
4
 1 0.303762 0.303762 0.976377
4
 1 0.298197 0.298197 0.978187
4
 1 0.303285 0.303285 0.968568
4
 1 0.301412 0.301412 0.968948
4
 1 0.300777 0.300777 0.977254
4
 0.991423 0.324651 0.324651 1
4
 0.997173 0.330506 0.330506 1
4
 0.992704 0.324334 0.324334 1
4
 0.990977 0.326154 0.326154 1
4
 0.980076 0.317605 0.317605 1
4
 0.985484 0.322044 0.322044 1
4
 0.979086 0.314958 0.314958 1
4
 0.986536 0.320063 0.320063 1
4
 0.98217 0.316334 0.316334 1
4
 0.991199 0.327852 0.327852 1
4
 0.980295 0.319259 0.319259 1
4
 0.973931 0.312234 0.312234 1
4
 0.969567 0.305383 0.305383 1
4
 0.976012 0.310985 0.310985 1
4
 0.971261 0.286944 0.286944 1
4
 0.975907 0.291137 0.291137 1
4
 0.973554 0.287763 0.287763 1
4
 0.97443 0.287026 0.287026 1
4
 0.965335 0.279673 0.279673 1
4
 0.979091 0.29122 0.29122 1
4
 0.978647 0.309632 0.309632 1
4
 0.970603 0.303504 0.303504 1
4
 0.971203 0.302527 0.302527 1
4
 0.977055 0.309071 0.309071 1
4
 0.985042 0.316598 0.316598 1
4
 0.980682 0.31291 0.31291 1
4
 0.996903 0.286648 0.286648 1
4
 1 0.288675 0.288675 0.998666
4
 1 0.292353 0.292353 0.993967
4
 0.991656 0.280403 0.280403 1
4
 0.996568 0.284898 0.284898 1
4
 0.986546 0.27731 0.27731 1
4
 0.987155 0.279197 0.279197 1
4
 0.996289 0.281407 0.281407 1
4
 0.996065 0.282764 0.282764 1
4
 0.986048 0.275233 0.275233 1
4
 1 0.285568 0.285568 0.998778
4
 1 0.287059 0.287059 0.994413
4
 1 0.288508 0.288508 0.994636
4
 1 0.290666 0.290666 0.994302
4
 1 0.293017 0.293017 0.986627
4
 1 0.29521 0.29521 0.986295
4
 1 0.298614 0.298614 0.98204
4
 1 0.292183 0.292183 0.989956
4
 1 0.29527 0.29527 0.990569
4
 1 0.297764 0.297764 0.985354
4
 0.959926 0.290178 0.290178 1
4
 0.963437 0.291693 0.291693 1
4
 0.966253 0.296844 0.296844 1
4
 0.96203 0.293523 0.293523 1
4
 0.958257 0.28746 0.28746 1
4
 0.956859 0.289263 0.289263 1
4
 0.966795 0.300223 0.300223 1
4
 0.96257 0.296864 0.296864 1
4
 0.972621 0.306717 0.306717 1
4
 0.963165 0.295909 0.295909 1
4
 0.936984 0.235519 0.235519 1
4
 0.939565 0.239344 0.239344 1
4
 0.941837 0.238543 0.238543 1
4
 0.943371 0.240976 0.240976 1
4
 0.940305 0.236529 0.236529 1
4
 0.942365 0.243278 0.243278 1
4
 0.944431 0.242822 0.242822 1
4
 0.949004 0.242006 0.242006 1
4
 0.95055 0.244474 0.244474 1
4
 0.954883 0.247173 0.247173 1
4
 0.946715 0.24201 0.24201 1
4
 0.95258 0.247177 0.247177 1
4
 0.952847 0.24858 0.24858 1
4
 0.957191 0.251324 0.251324 1
4
 0.960151 0.255693 0.255693 1
4
 0.963986 0.257746 0.257746 1
4
 1 0.30435 0.30435 0.964118
4
 0.944056 0.257863 0.257863 1
4
 0.953432 0.264426 0.264426 1
4
 0.93598 0.252476 0.252476 1
4
 0.932674 0.251398 0.251398 1
4
 0.937189 0.254765 0.254765 1
4
 0.983439 0.316025 0.316025 1
4
 0.962629 0.275075 0.275075 1
4
 0.961388 0.271697 0.271697 1
4
 0.966696 0.260747 0.260747 1
4
 0.967565 0.262693 0.262693 1
4
 0.981573 0.274049 0.274049 1
4
 0.975749 0.267478 0.267478 1
4
 0.976626 0.269475 0.269475 1
4
 0.977229 0.271308 0.271308 1
4
 0.97143 0.264803 0.264803 1
4
 1 0.33207 0.33207 0.978524
4
 1 0.328988 0.328988 0.98315
4
 1 0.328528 0.328528 0.987854
4
 1 0.324775 0.324775 0.977699
4
 1 0.330516 0.330516 0.97781
4
 1 0.330512 0.330512 0.974904
4
 1 0.326991 0.326991 0.987133
4
 1 0.327445 0.327445 0.979513
4
 0.947931 0.271249 0.271249 1
4
 0.944 0.266927 0.266927 1
4
 0.944529 0.272225 0.272225 1
4
 0.942199 0.267158 0.267158 1
4
 0.942728 0.2693 0.2693 1
4
 0.941141 0.270035 0.270035 1
4
 0.938819 0.265009 0.265009 1
4
 1 0.301954 0.301954 0.98685
4
 1 0.302748 0.302748 0.981986
4
 1 0.297893 0.297893 0.991182
4
 1 0.298675 0.298675 0.986296
4
 1 0.300409 0.300409 0.985964
1
 1

